p cnf 26 65
a 12 0
e 1 2 3 4 5 6 7 8 9 10 11 13 14 15 16 17 18 19 20 21 22 23 24 25 26 0
3 -1 0
3 -2 0
1 2 -3 0
-4 5 -6 0
4 -5 -6 0
-4 -5 6 0
4 5 6 0
-7 3 0
-7 -6 0
-3 6 7 0
9 -8 0
9 -5 0
8 5 -9 0
-10 8 0
-10 9 0
-8 -9 10 0
-11 1 0
-11 -10 0
-1 10 11 0
11 -12 -13 0
-11 12 -13 0
11 12 13 0
-11 -12 13 0
14 7 0
14 13 0
-7 -13 -14 0
17 -16 0
17 -16 0
16 -17 0
-15 -17 -18 0
15 17 -18 0
-15 17 18 0
15 -17 18 0
-19 -4 0
-19 -5 0
4 5 19 0
20 -19 0
20 -10 0
19 10 -20 0
-21 2 0
-21 -20 0
-2 20 21 0
-18 21 -22 0
18 -21 -22 0
-18 -21 22 0
18 21 22 0
-23 -4 0
-23 -19 0
4 19 23 0
-24 -16 0
-24 23 0
16 -23 24 0
25 -22 0
25 24 0
22 -24 -25 0
26 14 0
26 25 0
-14 -25 -26 0
-22 -21 -5 -11 -26 0
14 22 -12 20 -23 15 -17 0
20 -23 6 -8 -19 0
-11 17 4 0
-25 12 -9 24 15 -8 7 0
-17 9 -24 -11 -19 0
26 0
